(set-logic QF_S)
(declare-fun T_SELECT_2 () Bool)
(declare-fun T_c () Bool)
(declare-fun T_d () Bool)
(declare-fun PCTEMP_LHS_2 () Int)
(declare-fun T0_13 () String)
(declare-fun T1_13 () String)
(declare-fun var_0xINPUT_27599 () String)
(assert (= var_0xINPUT_27599 (str.++ T0_13 T1_13)))
(assert (not (str.in.re T1_13 (str.to.re "__utmb=16886264"))))
(assert T_d)
(assert (= T_d (not T_c)))
(assert (= T_c (< (- 1) PCTEMP_LHS_2)))
(assert (= PCTEMP_LHS_2 (- 1)))
(assert (= T_SELECT_2 (not (= PCTEMP_LHS_2 (- 1)))))
(assert (= 0 (str.len T0_13))) ; len 0
(assert (not T_SELECT_2))
(check-sat)
